letting n =  10
letting blocks =  [[1, 1], [1, 6], [2, 4], [2, 9], [2, 10], [3, 2], [3, 8], [3, 10], [4, 5], [4, 7], [5, 6], [6, 1], [6, 2], [6, 8], [7, 1], [7, 4], [7, 7], [7, 9], [8, 2], [8, 3], [8, 5], [8, 7], [8, 9], [8, 10], [9, 3], [9, 6], [9, 7], [10, 1], [10, 4], [10, 7]]
